NAME : mEgtspf.pid13307.gtsp.161061469.tour
COMMENT : Length = 161061469
COMMENT : Found by LKH [Keld Helsgaun] Wed Apr  2 20:49:25 2025
TYPE : TOUR
DIMENSION : 90
TOUR_SECTION
1
25
26
23
24
30
27
28
29
77
78
75
76
45
46
43
44
3
49
50
47
48
73
74
71
72
69
70
67
68
4
88
89
90
87
22
19
20
21
9
33
34
31
32
17
18
15
16
81
82
79
80
6
61
62
59
60
8
37
38
35
36
7
41
42
39
40
55
56
57
58
51
52
53
54
2
11
12
13
14
63
64
65
66
5
85
86
83
84
10
-1
EOF
